
(set-logic HORN)
(declare-fun Z_1464 () Int)
(declare-fun S_345 (Int) Int)
(declare-fun zero_98 () Int)
(declare-fun succ_96 (Int) Int)
(declare-fun diseqInt (Int Int) Bool)
(declare-fun unS_491 (Int Int) Bool)
(declare-fun isZ_318 (Int) Bool)
(declare-fun isS_318 (Int) Bool)
(assert (forall ((x_45852 Int))
	(unS_491 x_45852 (S_345 x_45852))))
(assert (isZ_318 Z_1464))
(assert (forall ((x_45854 Int))
	(isS_318 (S_345 x_45854))))
(assert (forall ((x_45855 Int))
	(diseqInt Z_1464 (S_345 x_45855))))
(assert (forall ((x_45856 Int))
	(diseqInt (S_345 x_45856) Z_1464)))
(assert (forall ((x_45857 Int) (x_45858 Int))
	(=> (diseqInt x_45857 x_45858) (diseqInt (S_345 x_45857) (S_345 x_45858)))))
(declare-fun add_262 (Int Int Int) Bool)
(declare-fun minus_260 (Int Int Int) Bool)
(declare-fun le_245 (Int Int) Bool)
(declare-fun ge_245 (Int Int) Bool)
(declare-fun lt_261 (Int Int) Bool)
(declare-fun gt_248 (Int Int) Bool)
(declare-fun mult_245 (Int Int Int) Bool)
(declare-fun div_245 (Int Int Int) Bool)
(declare-fun mod_247 (Int Int Int) Bool)
(assert (forall ((y_1627 Int))
	(add_262 y_1627 Z_1464 y_1627)))
(assert (forall ((x_45803 Int) (y_1627 Int) (r_306 Int))
	(=> (add_262 r_306 x_45803 y_1627) (add_262 (S_345 r_306) (S_345 x_45803) y_1627))))
(assert (forall ((y_1627 Int))
	(minus_260 Z_1464 Z_1464 y_1627)))
(assert (forall ((x_45803 Int) (y_1627 Int) (r_306 Int))
	(=> (minus_260 r_306 x_45803 y_1627) (minus_260 (S_345 r_306) (S_345 x_45803) y_1627))))
(assert (forall ((y_1627 Int))
	(le_245 Z_1464 y_1627)))
(assert (forall ((x_45803 Int) (y_1627 Int))
	(=> (le_245 x_45803 y_1627) (le_245 (S_345 x_45803) (S_345 y_1627)))))
(assert (forall ((y_1627 Int))
	(ge_245 y_1627 Z_1464)))
(assert (forall ((x_45803 Int) (y_1627 Int))
	(=> (ge_245 x_45803 y_1627) (ge_245 (S_345 x_45803) (S_345 y_1627)))))
(assert (forall ((y_1627 Int))
	(lt_261 Z_1464 (S_345 y_1627))))
(assert (forall ((x_45803 Int) (y_1627 Int))
	(=> (lt_261 x_45803 y_1627) (lt_261 (S_345 x_45803) (S_345 y_1627)))))
(assert (forall ((y_1627 Int))
	(gt_248 (S_345 y_1627) Z_1464)))
(assert (forall ((x_45803 Int) (y_1627 Int))
	(=> (gt_248 x_45803 y_1627) (gt_248 (S_345 x_45803) (S_345 y_1627)))))
(assert (forall ((y_1627 Int))
	(mult_245 Z_1464 Z_1464 y_1627)))
(assert (forall ((x_45803 Int) (y_1627 Int) (r_306 Int) (z_1465 Int))
	(=> (and (mult_245 r_306 x_45803 y_1627) (add_262 z_1465 r_306 y_1627)) (mult_245 z_1465 (S_345 x_45803) y_1627))))
(assert (forall ((x_45803 Int) (y_1627 Int))
	(=> (lt_261 x_45803 y_1627) (div_245 Z_1464 x_45803 y_1627))))
(assert (forall ((x_45803 Int) (y_1627 Int) (r_306 Int) (z_1465 Int))
	(=> (and (ge_245 x_45803 y_1627) (minus_260 z_1465 x_45803 y_1627) (div_245 r_306 z_1465 y_1627)) (div_245 (S_345 r_306) x_45803 y_1627))))
(assert (forall ((x_45803 Int) (y_1627 Int))
	(=> (lt_261 x_45803 y_1627) (mod_247 x_45803 x_45803 y_1627))))
(assert (forall ((x_45803 Int) (y_1627 Int) (r_306 Int) (z_1465 Int))
	(=> (and (ge_245 x_45803 y_1627) (minus_260 z_1465 x_45803 y_1627) (mod_247 r_306 z_1465 y_1627)) (mod_247 r_306 x_45803 y_1627))))
(declare-datatypes ((Bool_245 0)) (((false_245) (true_245))))
(declare-fun diseqBool_114 (Bool_245 Bool_245) Bool)
(declare-fun isfalse_114 (Bool_245) Bool)
(declare-fun istrue_114 (Bool_245) Bool)
(assert (isfalse_114 false_245))
(assert (istrue_114 true_245))
(assert (diseqBool_114 false_245 true_245))
(assert (diseqBool_114 true_245 false_245))
(declare-fun and_245 (Bool_245 Bool_245 Bool_245) Bool)
(declare-fun or_250 (Bool_245 Bool_245 Bool_245) Bool)
(declare-fun hence_245 (Bool_245 Bool_245 Bool_245) Bool)
(declare-fun not_248 (Bool_245 Bool_245) Bool)
(assert (and_245 false_245 false_245 false_245))
(assert (and_245 false_245 true_245 false_245))
(assert (and_245 false_245 false_245 true_245))
(assert (and_245 true_245 true_245 true_245))
(assert (or_250 false_245 false_245 false_245))
(assert (or_250 true_245 true_245 false_245))
(assert (or_250 true_245 false_245 true_245))
(assert (or_250 true_245 true_245 true_245))
(assert (hence_245 true_245 false_245 false_245))
(assert (hence_245 false_245 true_245 false_245))
(assert (hence_245 true_245 false_245 true_245))
(assert (hence_245 true_245 true_245 true_245))
(assert (not_248 true_245 false_245))
(assert (not_248 false_245 true_245))
(declare-datatypes ((pair_70 0)) (((pair_71 (projpair_140 Int) (projpair_141 Int)))))
(declare-fun diseqpair_35 (pair_70 pair_70) Bool)
(declare-fun projpair_142 (Int pair_70) Bool)
(declare-fun projpair_143 (Int pair_70) Bool)
(declare-fun ispair_35 (pair_70) Bool)
(assert (forall ((x_45806 Int) (x_45807 Int))
	(projpair_142 x_45806 (pair_71 x_45806 x_45807))))
(assert (forall ((x_45806 Int) (x_45807 Int))
	(projpair_143 x_45807 (pair_71 x_45806 x_45807))))
(assert (forall ((x_45809 Int) (x_45810 Int))
	(ispair_35 (pair_71 x_45809 x_45810))))
(assert (forall ((x_45811 Int) (x_45812 Int) (x_45813 Int) (x_45814 Int))
	(=> (diseqInt x_45811 x_45813) (diseqpair_35 (pair_71 x_45811 x_45812) (pair_71 x_45813 x_45814)))))
(assert (forall ((x_45811 Int) (x_45812 Int) (x_45813 Int) (x_45814 Int))
	(=> (diseqInt x_45812 x_45814) (diseqpair_35 (pair_71 x_45811 x_45812) (pair_71 x_45813 x_45814)))))
(declare-datatypes ((list_177 0)) (((nil_202) (cons_177 (head_354 Int) (tail_354 list_177)))))
(declare-fun diseqlist_177 (list_177 list_177) Bool)
(declare-fun head_356 (Int list_177) Bool)
(declare-fun tail_356 (list_177 list_177) Bool)
(declare-fun isnil_202 (list_177) Bool)
(declare-fun iscons_177 (list_177) Bool)
(assert (forall ((x_45816 Int) (x_45817 list_177))
	(head_356 x_45816 (cons_177 x_45816 x_45817))))
(assert (forall ((x_45816 Int) (x_45817 list_177))
	(tail_356 x_45817 (cons_177 x_45816 x_45817))))
(assert (isnil_202 nil_202))
(assert (forall ((x_45819 Int) (x_45820 list_177))
	(iscons_177 (cons_177 x_45819 x_45820))))
(assert (forall ((x_45821 Int) (x_45822 list_177))
	(diseqlist_177 nil_202 (cons_177 x_45821 x_45822))))
(assert (forall ((x_45823 Int) (x_45824 list_177))
	(diseqlist_177 (cons_177 x_45823 x_45824) nil_202)))
(assert (forall ((x_45825 Int) (x_45826 list_177) (x_45827 Int) (x_45828 list_177))
	(=> (diseqInt x_45825 x_45827) (diseqlist_177 (cons_177 x_45825 x_45826) (cons_177 x_45827 x_45828)))))
(assert (forall ((x_45825 Int) (x_45826 list_177) (x_45827 Int) (x_45828 list_177))
	(=> (diseqlist_177 x_45826 x_45828) (diseqlist_177 (cons_177 x_45825 x_45826) (cons_177 x_45827 x_45828)))))
(declare-datatypes ((list_178 0)) (((nil_203) (cons_178 (head_355 pair_70) (tail_355 list_178)))))
(declare-fun diseqlist_178 (list_178 list_178) Bool)
(declare-fun head_357 (pair_70 list_178) Bool)
(declare-fun tail_357 (list_178 list_178) Bool)
(declare-fun isnil_203 (list_178) Bool)
(declare-fun iscons_178 (list_178) Bool)
(assert (forall ((x_45830 pair_70) (x_45831 list_178))
	(head_357 x_45830 (cons_178 x_45830 x_45831))))
(assert (forall ((x_45830 pair_70) (x_45831 list_178))
	(tail_357 x_45831 (cons_178 x_45830 x_45831))))
(assert (isnil_203 nil_203))
(assert (forall ((x_45833 pair_70) (x_45834 list_178))
	(iscons_178 (cons_178 x_45833 x_45834))))
(assert (forall ((x_45835 pair_70) (x_45836 list_178))
	(diseqlist_178 nil_203 (cons_178 x_45835 x_45836))))
(assert (forall ((x_45837 pair_70) (x_45838 list_178))
	(diseqlist_178 (cons_178 x_45837 x_45838) nil_203)))
(assert (forall ((x_45839 pair_70) (x_45840 list_178) (x_45841 pair_70) (x_45842 list_178))
	(=> (diseqpair_35 x_45839 x_45841) (diseqlist_178 (cons_178 x_45839 x_45840) (cons_178 x_45841 x_45842)))))
(assert (forall ((x_45839 pair_70) (x_45840 list_178) (x_45841 pair_70) (x_45842 list_178))
	(=> (diseqlist_178 x_45840 x_45842) (diseqlist_178 (cons_178 x_45839 x_45840) (cons_178 x_45841 x_45842)))))
(declare-fun diseqInt (Int Int) Bool)
(declare-fun p_281 (Int Int) Bool)
(declare-fun iszero_96 (Int) Bool)
(declare-fun issucc_96 (Int) Bool)
(assert (forall ((x_45844 Int))
	(p_281 x_45844 (succ_96 x_45844))))
(assert (iszero_96 zero_98))
(assert (forall ((x_45846 Int))
	(issucc_96 (succ_96 x_45846))))
(assert (forall ((x_45847 Int))
	(diseqInt zero_98 (succ_96 x_45847))))
(assert (forall ((x_45848 Int))
	(diseqInt (succ_96 x_45848) zero_98)))
(assert (forall ((x_45849 Int) (x_45850 Int))
	(=> (diseqInt x_45849 x_45850) (diseqInt (succ_96 x_45849) (succ_96 x_45850)))))
(declare-fun unpair_0 (list_177 list_178) Bool)
(assert (forall ((x_45770 list_177) (z_1460 Int) (y_1619 Int) (xys_0 list_178))
	(=> (unpair_0 x_45770 xys_0) (unpair_0 (cons_177 z_1460 (cons_177 y_1619 x_45770)) (cons_178 (pair_71 z_1460 y_1619) xys_0)))))
(assert (unpair_0 nil_202 nil_203))
(declare-fun plus_98 (Int Int Int) Bool)
(assert (forall ((x_45773 Int) (z_1461 Int) (y_1620 Int))
	(=> (plus_98 x_45773 z_1461 y_1620) (plus_98 (succ_96 x_45773) (succ_96 z_1461) y_1620))))
(assert (forall ((x_45774 Int))
	(plus_98 x_45774 zero_98 x_45774)))
(declare-fun pairs_6 (list_178 list_177) Bool)
(assert (forall ((x_45776 list_178) (y_1622 Int) (xs_483 list_177) (y_1621 Int))
	(=> (pairs_6 x_45776 xs_483) (pairs_6 (cons_178 (pair_71 y_1621 y_1622) x_45776) (cons_177 y_1621 (cons_177 y_1622 xs_483))))))
(assert (forall ((y_1621 Int))
	(pairs_6 nil_203 (cons_177 y_1621 nil_202))))
(assert (pairs_6 nil_203 nil_202))
(declare-fun length_28 (Int list_177) Bool)
(assert (forall ((x_45779 Int) (x_45780 Int) (y_1623 Int) (l_30 list_177))
	(=> (and (length_28 x_45780 l_30) (plus_98 x_45779 (succ_96 zero_98) x_45780)) (length_28 x_45779 (cons_177 y_1623 l_30)))))
(assert (length_28 zero_98 nil_202))
(declare-fun even_0 (Bool_245 Int) Bool)
(assert (forall ((x_45783 Bool_245) (x_45784 Bool_245) (y_1624 Int))
	(=> (and (even_0 x_45784 y_1624) (not_248 x_45783 x_45784)) (even_0 x_45783 (succ_96 y_1624)))))
(assert (even_0 true_245 zero_98))
(assert (forall ((x_45786 Int) (x_45787 Int) (x_45788 Int) (x_45789 Int) (x_45765 Int) (y_1625 Int) (z_1463 Int))
	(=> (and true (diseqInt x_45787 x_45789) (plus_98 x_45786 y_1625 z_1463) (plus_98 x_45787 x_45765 x_45786) (plus_98 x_45788 x_45765 y_1625) (plus_98 x_45789 x_45788 z_1463)) false)))
(assert (forall ((x_45790 Int) (x_45791 Int) (x_45766 Int) (y_1626 Int))
	(=> (and true (diseqInt x_45790 x_45791) (plus_98 x_45790 x_45766 y_1626) (plus_98 x_45791 y_1626 x_45766)) false)))
(assert (forall ((x_45792 Int) (x_45767 Int))
	(=> (and true (diseqInt x_45792 x_45767) (plus_98 x_45792 x_45767 zero_98)) false)))
(assert (forall ((x_45793 Int) (x_45768 Int))
	(=> (and true (diseqInt x_45793 x_45768) (plus_98 x_45793 zero_98 x_45768)) false)))
(assert (forall ((x_45796 Int) (x_45794 list_178) (x_45795 list_177) (xs_484 list_177))
	(=> (and true (diseqlist_177 x_45795 xs_484) (length_28 x_45796 xs_484) (even_0 true_245 x_45796) (pairs_6 x_45794 xs_484) (unpair_0 x_45795 x_45794)) false)))
(check-sat)
